
     Program PWSCF v.7.4.1 starts on 28Jun2025 at 19:31:12 

     This program is part of the open-source Quantum ESPRESSO suite
     for quantum simulation of materials; please cite
         "P. Giannozzi et al., J. Phys.:Condens. Matter 21 395502 (2009);
         "P. Giannozzi et al., J. Phys.:Condens. Matter 29 465901 (2017);
         "P. Giannozzi et al., J. Chem. Phys. 152 154105 (2020);
          URL http://www.quantum-espresso.org", 
     in publications or presentations arising from this work. More details at
     http://www.quantum-espresso.org/quote

     Serial version
     3222 MiB available memory on the printing compute node when the environment starts

     Reading input from fe-ccc-vcrelax.in

     Current dimensions of program PWSCF are:
     Max number of different atomic species (ntypx) = 10
     Max number of k-points (npk) =  40000
     Max angular momentum in pseudopotentials (lmaxx) =  4


     G-vector sticks info
     --------------------
     sticks:   dense  smooth     PW     G-vecs:    dense   smooth      PW
     Sum         657     265     91                10641     2731     555

     Using Slab Decomposition


     Title: 
     Fe-CCC                                                                     


     bravais-lattice index     =            3
     lattice parameter (alat)  =       5.4046  a.u.
     unit-cell volume          =      78.9341 (a.u.)^3
     number of atoms/cell      =            1
     number of atomic types    =            1
     number of electrons       =        16.00
     number of Kohn-Sham states=           12
     kinetic-energy cutoff     =      40.0000  Ry
     charge density cutoff     =     400.0000  Ry
     scf convergence threshold =      1.0E-06
     mixing beta               =       0.7000
     number of iterations used =            8  plain     mixing
     energy convergence thresh.=      1.0E-05
     force convergence thresh. =      1.0E-04
     press convergence thresh. =      5.0E-01
     Exchange-correlation=  SLA  PW   PBX  PBC
                           (   1   4   3   4   0   0   0)
     nstep                     =           50


     celldm(1)=   5.404616  celldm(2)=   0.000000  celldm(3)=   0.000000
     celldm(4)=   0.000000  celldm(5)=   0.000000  celldm(6)=   0.000000

     crystal axes: (cart. coord. in units of alat)
               a(1) = (   0.500000   0.500000   0.500000 )  
               a(2) = (  -0.500000   0.500000   0.500000 )  
               a(3) = (  -0.500000  -0.500000   0.500000 )  

     reciprocal axes: (cart. coord. in units 2 pi/alat)
               b(1) = (  1.000000  0.000000  1.000000 )  
               b(2) = ( -1.000000  1.000000  0.000000 )  
               b(3) = (  0.000000 -1.000000  1.000000 )  


     PseudoPot. # 1 for Fe read from file:
     ../pseudos/fe_pbe_v1.5.uspp.F.UPF
     MD5 check sum: a130daea23fe5165f5d574ae7f82ed95
     Pseudo is Ultrasoft + core correction, Zval = 16.0
     Generated by new atomic code, or converted to UPF format
     Using radial grid of  861 points,  6 beta functions with: 
                l(1) =   0
                l(2) =   0
                l(3) =   1
                l(4) =   1
                l(5) =   2
                l(6) =   2
     Q(r) pseudized with  8 coefficients,  rinner =    1.000   1.000   1.000
                                                       1.000   1.000

     atomic species   valence    mass     pseudopotential
     Fe               16.00    55.84500     Fe( 1.00)

     Starting magnetic structure 
     atomic species   magnetization
     Fe              0.156

     48 Sym. Ops., with inversion, found



   Cartesian axes

     site n.     atom                  positions (alat units)
         1        Fe     tau(   1) = (   0.0000000   0.0000000   0.0000000  )

     number of k points=   250  Marzari-Vanderbilt smearing, width (Ry)=  0.0010

     Number of k-points >= 100: set verbosity='high' to print them.

     Dense  grid:    10641 G-vectors     FFT dimensions: (  30,  30,  30)

     Smooth grid:     2731 G-vectors     FFT dimensions: (  20,  20,  20)

     Estimated max dynamical RAM per process >      77.59 MB

     Check: negative core charge=   -0.000041
     Generating pointlists ...
     new r_m :   0.3572 (alat units)  1.9307 (a.u.) for type    1

     Initial potential from superposition of free atoms

     starting charge      15.0000, renormalised to      16.0000
     Starting wfcs are   13 randomized atomic wfcs

     total cpu time spent up to now is        2.3 secs

     Self-consistent Calculation

     iteration #  1     ecut=    40.00 Ry     beta= 0.70
     Davidson diagonalization with overlap
     ethr =  1.00E-02,  avg # of iterations =  2.9

     total cpu time spent up to now is        7.3 secs

     total energy              =    -249.10028831 Ry
     estimated scf accuracy    <       2.27256815 Ry

     total magnetization       =     1.88 Bohr mag/cell
     absolute magnetization    =     1.88 Bohr mag/cell

     iteration #  2     ecut=    40.00 Ry     beta= 0.70
     Davidson diagonalization with overlap
     ethr =  1.00E-02,  avg # of iterations =  2.6

     total cpu time spent up to now is       12.3 secs

     total energy              =    -249.28382366 Ry
     estimated scf accuracy    <       6.19713075 Ry

     total magnetization       =     2.02 Bohr mag/cell
     absolute magnetization    =     2.03 Bohr mag/cell

     iteration #  3     ecut=    40.00 Ry     beta= 0.70
     Davidson diagonalization with overlap
     ethr =  1.00E-02,  avg # of iterations =  2.0

     total cpu time spent up to now is       16.7 secs

     total energy              =    -250.34395725 Ry
     estimated scf accuracy    <       0.00759859 Ry

     total magnetization       =     2.14 Bohr mag/cell
     absolute magnetization    =     2.19 Bohr mag/cell

     iteration #  4     ecut=    40.00 Ry     beta= 0.70
     Davidson diagonalization with overlap
     ethr =  4.75E-05,  avg # of iterations =  2.5

     total cpu time spent up to now is       20.8 secs

     total energy              =    -250.34522864 Ry
     estimated scf accuracy    <       0.00200697 Ry

     total magnetization       =     2.16 Bohr mag/cell
     absolute magnetization    =     2.24 Bohr mag/cell

     iteration #  5     ecut=    40.00 Ry     beta= 0.70
     Davidson diagonalization with overlap
     ethr =  1.25E-05,  avg # of iterations =  2.0

     total cpu time spent up to now is       24.9 secs

     total energy              =    -250.34608158 Ry
     estimated scf accuracy    <       0.00056514 Ry

     total magnetization       =     2.23 Bohr mag/cell
     absolute magnetization    =     2.34 Bohr mag/cell

     iteration #  6     ecut=    40.00 Ry     beta= 0.70
     Davidson diagonalization with overlap
     ethr =  3.53E-06,  avg # of iterations =  1.2

     total cpu time spent up to now is       28.5 secs

     total energy              =    -250.34609861 Ry
     estimated scf accuracy    <       0.00061227 Ry

     total magnetization       =     2.23 Bohr mag/cell
     absolute magnetization    =     2.34 Bohr mag/cell

     iteration #  7     ecut=    40.00 Ry     beta= 0.70
     Davidson diagonalization with overlap
     ethr =  3.53E-06,  avg # of iterations =  1.1

     total cpu time spent up to now is       32.1 secs

     total energy              =    -250.34616062 Ry
     estimated scf accuracy    <       0.00023813 Ry

     total magnetization       =     2.25 Bohr mag/cell
     absolute magnetization    =     2.36 Bohr mag/cell

     iteration #  8     ecut=    40.00 Ry     beta= 0.70
     Davidson diagonalization with overlap
     ethr =  1.49E-06,  avg # of iterations =  1.4

     total cpu time spent up to now is       35.7 secs

     total energy              =    -250.34619899 Ry
     estimated scf accuracy    <       0.00009923 Ry

     total magnetization       =     2.28 Bohr mag/cell
     absolute magnetization    =     2.40 Bohr mag/cell

     iteration #  9     ecut=    40.00 Ry     beta= 0.70
     Davidson diagonalization with overlap
     ethr =  6.20E-07,  avg # of iterations =  1.5

     total cpu time spent up to now is       39.4 secs

     total energy              =    -250.34621412 Ry
     estimated scf accuracy    <       0.00002252 Ry

     total magnetization       =     2.29 Bohr mag/cell
     absolute magnetization    =     2.41 Bohr mag/cell

     iteration # 10     ecut=    40.00 Ry     beta= 0.70
     Davidson diagonalization with overlap
     ethr =  1.41E-07,  avg # of iterations =  1.5

     total cpu time spent up to now is       43.2 secs

     total energy              =    -250.34621744 Ry
     estimated scf accuracy    <       0.00000270 Ry

     total magnetization       =     2.29 Bohr mag/cell
     absolute magnetization    =     2.41 Bohr mag/cell

     iteration # 11     ecut=    40.00 Ry     beta= 0.70
     Davidson diagonalization with overlap
     ethr =  1.69E-08,  avg # of iterations =  1.1

     total cpu time spent up to now is       46.9 secs

     total energy              =    -250.34621771 Ry
     estimated scf accuracy    <       0.00000176 Ry

     total magnetization       =     2.29 Bohr mag/cell
     absolute magnetization    =     2.41 Bohr mag/cell

     iteration # 12     ecut=    40.00 Ry     beta= 0.70
     Davidson diagonalization with overlap
     ethr =  1.10E-08,  avg # of iterations =  1.5

     Magnetic moment per site  (integrated on atomic sphere of radius R)
     atom   1 (R=0.357)  charge= 14.4137  magn=  2.3387

     total cpu time spent up to now is       51.2 secs

     End of self-consistent calculation

     Number of k-points >= 100: set verbosity='high' to print the bands.

     the Fermi energy is    17.5291 ev

!    total energy              =    -250.34621789 Ry
     estimated scf accuracy    <       0.00000018 Ry
     smearing contrib. (-TS)   =      -0.00000115 Ry
     internal energy E=F+TS    =    -250.34621674 Ry

     The total energy is F=E-TS. E is the sum of the following terms:
     one-electron contribution =    -116.06800782 Ry
     hartree contribution      =      67.31516177 Ry
     xc contribution           =     -29.21411069 Ry
     ewald contribution        =    -172.37926000 Ry

     total magnetization       =     2.29 Bohr mag/cell
     absolute magnetization    =     2.41 Bohr mag/cell

     convergence has been achieved in  12 iterations

     Forces acting on atoms (cartesian axes, Ry/au):

     atom    1 type  1   force =     0.00000000    0.00000000    0.00000000

     Total force =     0.000000     Total SCF correction =     0.000000


     Computing stress (Cartesian axis) and pressure

          total   stress  (Ry/bohr**3)                   (kbar)     P=      -34.65
  -0.00023557   0.00000000  -0.00000000          -34.65        0.00       -0.00
  -0.00000000  -0.00023557   0.00000000           -0.00      -34.65        0.00
  -0.00000000   0.00000000  -0.00023557           -0.00        0.00      -34.65


     BFGS Geometry Optimization
     Energy error            =      3.3E-04 Ry
     Gradient error          =      0.0E+00 Ry/Bohr
     Cell gradient error     =      3.5E+01 kbar

     number of scf cycles    =   1
     number of bfgs steps    =   0

     enthalpy           new  =    -250.3462178887 Ry

     new trust radius        =       0.0104645566 bohr
ibrav =      3
 celldm(1) =      5.37278730
Input lattice vectors:
     0.49705538     0.49705538     0.49705538
    -0.49705538     0.49705538     0.49705538
    -0.49705538    -0.49705538     0.49705538
New lattice vectors in INITIAL alat:
     0.49705538     0.49705538     0.49705538
    -0.49705538     0.49705538     0.49705538
    -0.49705538    -0.49705538     0.49705538
New lattice vectors in NEW alat (for information only):
     0.50000000     0.50000000     0.50000000
    -0.50000000     0.50000000     0.50000000
    -0.50000000    -0.50000000     0.50000000
Discrepancy in bohr =     0.000000    0.000000    0.000000
     new conv_thr            =       0.0000010000 Ry

     new unit-cell volume =     77.54770 a.u.^3 (    11.49138 Ang^3 )
     density =      8.06977 g/cm^3

CELL_PARAMETERS (alat=  5.40461633)
   0.497055385   0.497055385   0.497055385
  -0.497055385   0.497055385   0.497055385
  -0.497055385  -0.497055385   0.497055385

ATOMIC_POSITIONS (crystal)
Fe               0.0000000000        0.0000000000        0.0000000000



     Writing config-only to output data dir ./tmp/Fe-CCC.save/ :
     XML data file
     NEW-OLD atomic charge density approx. for the potential
     New effective cutoffs (rho, wfc):  402.08   40.47

     Check: negative core charge=   -0.000042
     Generating pointlists ...

     total cpu time spent up to now is       54.1 secs

     Self-consistent Calculation

     iteration #  1     ecut=    40.00 Ry     beta= 0.70
     Davidson diagonalization with overlap
     ethr =  1.00E-06,  avg # of iterations =  3.1

     total cpu time spent up to now is       60.2 secs

     total energy              =    -250.34629445 Ry
     estimated scf accuracy    <       0.00042380 Ry

     total magnetization       =     2.24 Bohr mag/cell
     absolute magnetization    =     2.37 Bohr mag/cell

     iteration #  2     ecut=    40.00 Ry     beta= 0.70
     Davidson diagonalization with overlap
     ethr =  2.65E-06,  avg # of iterations =  2.2

     total cpu time spent up to now is       65.2 secs

     total energy              =    -250.34628699 Ry
     estimated scf accuracy    <       0.00130392 Ry

     total magnetization       =     2.26 Bohr mag/cell
     absolute magnetization    =     2.38 Bohr mag/cell

     iteration #  3     ecut=    40.00 Ry     beta= 0.70
     Davidson diagonalization with overlap
     ethr =  2.65E-06,  avg # of iterations =  2.0

     total cpu time spent up to now is       69.5 secs

     total energy              =    -250.34651121 Ry
     estimated scf accuracy    <       0.00001400 Ry

     total magnetization       =     2.24 Bohr mag/cell
     absolute magnetization    =     2.37 Bohr mag/cell

     iteration #  4     ecut=    40.00 Ry     beta= 0.70
     Davidson diagonalization with overlap
     ethr =  8.75E-08,  avg # of iterations =  1.6

     Magnetic moment per site  (integrated on atomic sphere of radius R)
     atom   1 (R=0.357)  charge= 14.4332  magn=  2.2879

     total cpu time spent up to now is       73.2 secs

     End of self-consistent calculation

     Number of k-points >= 100: set verbosity='high' to print the bands.

     the Fermi energy is    17.9328 ev

!    total energy              =    -250.34651575 Ry
     estimated scf accuracy    <       0.00000078 Ry
     smearing contrib. (-TS)   =      -0.00000039 Ry
     internal energy E=F+TS    =    -250.34651536 Ry

     The total energy is F=E-TS. E is the sum of the following terms:
     one-electron contribution =    -114.41746723 Ry
     hartree contribution      =      66.68945257 Ry
     xc contribution           =     -29.21804551 Ry
     ewald contribution        =    -173.40045520 Ry

     total magnetization       =     2.23 Bohr mag/cell
     absolute magnetization    =     2.36 Bohr mag/cell

     convergence has been achieved in   4 iterations

     Forces acting on atoms (cartesian axes, Ry/au):

     atom    1 type  1   force =     0.00000000    0.00000000    0.00000000

     Total force =     0.000000     Total SCF correction =     0.000000


     Computing stress (Cartesian axis) and pressure

          total   stress  (Ry/bohr**3)                   (kbar)     P=      -46.56
  -0.00031649  -0.00000000   0.00000000          -46.56       -0.00        0.00
  -0.00000000  -0.00031649  -0.00000000           -0.00      -46.56       -0.00
   0.00000000  -0.00000000  -0.00031649            0.00       -0.00      -46.56

     Energy error            =      3.0E-04 Ry
     Gradient error          =      0.0E+00 Ry/Bohr
     Cell gradient error     =      4.7E+01 kbar

     number of scf cycles    =   2
     number of bfgs steps    =   1

     enthalpy           old  =    -250.3462178887 Ry
     enthalpy           new  =    -250.3465157502 Ry

     CASE: enthalpy          _new < enthalpy          _old


     WARNING: bfgs curvature condition failed, Theta= 0.603
     uphill step: resetting bfgs history

     new trust radius        =       0.0139350324 bohr
ibrav =      3
 celldm(1) =      5.33027710
Input lattice vectors:
     0.49312262     0.49312262     0.49312262
    -0.49312262     0.49312262     0.49312262
    -0.49312262    -0.49312262     0.49312262
New lattice vectors in INITIAL alat:
     0.49312262     0.49312262     0.49312262
    -0.49312262     0.49312262     0.49312262
    -0.49312262    -0.49312262     0.49312262
New lattice vectors in NEW alat (for information only):
     0.50000000     0.50000000     0.50000000
    -0.50000000     0.50000000     0.50000000
    -0.50000000    -0.50000000     0.50000000
Discrepancy in bohr =     0.000000    0.000000    0.000000
     new conv_thr            =       0.0000000100 Ry

     new unit-cell volume =     75.72153 a.u.^3 (    11.22077 Ang^3 )
     density =      8.26439 g/cm^3

CELL_PARAMETERS (alat=  5.40461633)
   0.493122617   0.493122617   0.493122617
  -0.493122617   0.493122617   0.493122617
  -0.493122617  -0.493122617   0.493122617

ATOMIC_POSITIONS (crystal)
Fe               0.0000000000        0.0000000000        0.0000000000



     Writing config-only to output data dir ./tmp/Fe-CCC.save/ :
     XML data file
     NEW-OLD atomic charge density approx. for the potential
     New effective cutoffs (rho, wfc):  408.51   41.12

     Check: negative core charge=   -0.000044
     Generating pointlists ...
     new r_m :   0.3523 (alat units)  1.9042 (a.u.) for type    1

     total cpu time spent up to now is       75.2 secs

     Self-consistent Calculation

     iteration #  1     ecut=    40.00 Ry     beta= 0.70
     Davidson diagonalization with overlap
     ethr =  1.00E-06,  avg # of iterations =  3.4

     total cpu time spent up to now is       81.7 secs

     total energy              =    -250.34623190 Ry
     estimated scf accuracy    <       0.00045308 Ry

     total magnetization       =     2.19 Bohr mag/cell
     absolute magnetization    =     2.32 Bohr mag/cell

     iteration #  2     ecut=    40.00 Ry     beta= 0.70
     Davidson diagonalization with overlap
     ethr =  2.83E-06,  avg # of iterations =  2.2

     total cpu time spent up to now is       86.7 secs

     total energy              =    -250.34620963 Ry
     estimated scf accuracy    <       0.00154438 Ry

     total magnetization       =     2.21 Bohr mag/cell
     absolute magnetization    =     2.33 Bohr mag/cell

     iteration #  3     ecut=    40.00 Ry     beta= 0.70
     Davidson diagonalization with overlap
     ethr =  2.83E-06,  avg # of iterations =  2.0

     total cpu time spent up to now is       91.2 secs

     total energy              =    -250.34647534 Ry
     estimated scf accuracy    <       0.00001177 Ry

     total magnetization       =     2.19 Bohr mag/cell
     absolute magnetization    =     2.31 Bohr mag/cell

     iteration #  4     ecut=    40.00 Ry     beta= 0.70
     Davidson diagonalization with overlap
     ethr =  7.35E-08,  avg # of iterations =  2.0

     total cpu time spent up to now is       95.3 secs

     total energy              =    -250.34648081 Ry
     estimated scf accuracy    <       0.00000406 Ry

     total magnetization       =     2.18 Bohr mag/cell
     absolute magnetization    =     2.30 Bohr mag/cell

     iteration #  5     ecut=    40.00 Ry     beta= 0.70
     Davidson diagonalization with overlap
     ethr =  2.54E-08,  avg # of iterations =  2.0

     total cpu time spent up to now is       99.6 secs

     total energy              =    -250.34648262 Ry
     estimated scf accuracy    <       0.00000059 Ry

     total magnetization       =     2.18 Bohr mag/cell
     absolute magnetization    =     2.30 Bohr mag/cell

     iteration #  6     ecut=    40.00 Ry     beta= 0.70
     Davidson diagonalization with overlap
     ethr =  3.70E-09,  avg # of iterations =  1.9

     total cpu time spent up to now is      103.7 secs

     total energy              =    -250.34648276 Ry
     estimated scf accuracy    <       0.00000004 Ry

     total magnetization       =     2.18 Bohr mag/cell
     absolute magnetization    =     2.30 Bohr mag/cell

     iteration #  7     ecut=    40.00 Ry     beta= 0.70
     Davidson diagonalization with overlap
     ethr =  2.37E-10,  avg # of iterations =  1.2

     Magnetic moment per site  (integrated on atomic sphere of radius R)
     atom   1 (R=0.352)  charge= 14.3788  magn=  2.2268

     total cpu time spent up to now is      107.3 secs

     End of self-consistent calculation

     Number of k-points >= 100: set verbosity='high' to print the bands.

     the Fermi energy is    18.4818 ev

!    total energy              =    -250.34648277 Ry
     estimated scf accuracy    <          2.7E-09 Ry
     smearing contrib. (-TS)   =      -0.00000067 Ry
     internal energy E=F+TS    =    -250.34648209 Ry

     The total energy is F=E-TS. E is the sum of the following terms:
     one-electron contribution =    -112.22078251 Ry
     hartree contribution      =      65.88775398 Ry
     xc contribution           =     -29.23008935 Ry
     ewald contribution        =    -174.78336421 Ry

     total magnetization       =     2.18 Bohr mag/cell
     absolute magnetization    =     2.30 Bohr mag/cell

     convergence has been achieved in   7 iterations

     Forces acting on atoms (cartesian axes, Ry/au):

     atom    1 type  1   force =     0.00000000    0.00000000    0.00000000

     Total force =     0.000000     Total SCF correction =     0.000000


     Computing stress (Cartesian axis) and pressure

          total   stress  (Ry/bohr**3)                   (kbar)     P=       21.72
   0.00014765   0.00000000  -0.00000000           21.72        0.00       -0.00
   0.00000000   0.00014765   0.00000000            0.00       21.72        0.00
   0.00000000   0.00000000   0.00014765            0.00        0.00       21.72

     Energy error            =      3.3E-05 Ry
     Gradient error          =      0.0E+00 Ry/Bohr
     Cell gradient error     =      2.2E+01 kbar

     number of scf cycles    =   3
     number of bfgs steps    =   2

     enthalpy           old  =    -250.3465157502 Ry
     enthalpy           new  =    -250.3464827654 Ry

     CASE: enthalpy          _new > enthalpy          _old

     new trust radius        =       0.0065680112 bohr
ibrav =      3
 celldm(1) =      5.35267119
Input lattice vectors:
     0.49519437     0.49519437     0.49519437
    -0.49519437     0.49519437     0.49519437
    -0.49519437    -0.49519437     0.49519437
New lattice vectors in INITIAL alat:
     0.49519437     0.49519437     0.49519437
    -0.49519437     0.49519437     0.49519437
    -0.49519437    -0.49519437     0.49519437
New lattice vectors in NEW alat (for information only):
     0.50000000     0.50000000     0.50000000
    -0.50000000     0.50000000     0.50000000
    -0.50000000    -0.50000000     0.50000000
Discrepancy in bohr =     0.000000    0.000000    0.000000
     new conv_thr            =       0.0000000100 Ry

     new unit-cell volume =     76.67993 a.u.^3 (    11.36279 Ang^3 )
     density =      8.16109 g/cm^3

CELL_PARAMETERS (alat=  5.40461633)
   0.495194373   0.495194373   0.495194373
  -0.495194373   0.495194373   0.495194373
  -0.495194373  -0.495194373   0.495194373

ATOMIC_POSITIONS (crystal)
Fe               0.0000000000        0.0000000000        0.0000000000



     Writing config-only to output data dir ./tmp/Fe-CCC.save/ :
     XML data file
     NEW-OLD atomic charge density approx. for the potential
     New effective cutoffs (rho, wfc):  405.10   40.78

     Check: negative core charge=   -0.000043
     Generating pointlists ...

     total cpu time spent up to now is      109.3 secs

     Self-consistent Calculation

     iteration #  1     ecut=    40.00 Ry     beta= 0.70
     Davidson diagonalization with overlap
     ethr =  1.00E-06,  avg # of iterations =  3.0

     total cpu time spent up to now is      115.2 secs

     total energy              =    -250.34648408 Ry
     estimated scf accuracy    <       0.00014640 Ry

     total magnetization       =     2.20 Bohr mag/cell
     absolute magnetization    =     2.32 Bohr mag/cell

     iteration #  2     ecut=    40.00 Ry     beta= 0.70
     Davidson diagonalization with overlap
     ethr =  9.15E-07,  avg # of iterations =  2.2

     total cpu time spent up to now is      120.0 secs

     total energy              =    -250.34646467 Ry
     estimated scf accuracy    <       0.00054113 Ry

     total magnetization       =     2.18 Bohr mag/cell
     absolute magnetization    =     2.31 Bohr mag/cell

     iteration #  3     ecut=    40.00 Ry     beta= 0.70
     Davidson diagonalization with overlap
     ethr =  9.15E-07,  avg # of iterations =  2.0

     total cpu time spent up to now is      124.4 secs

     total energy              =    -250.34656011 Ry
     estimated scf accuracy    <       0.00000475 Ry

     total magnetization       =     2.20 Bohr mag/cell
     absolute magnetization    =     2.32 Bohr mag/cell

     iteration #  4     ecut=    40.00 Ry     beta= 0.70
     Davidson diagonalization with overlap
     ethr =  2.97E-08,  avg # of iterations =  1.5

     total cpu time spent up to now is      128.3 secs

     total energy              =    -250.34656294 Ry
     estimated scf accuracy    <       0.00000057 Ry

     total magnetization       =     2.20 Bohr mag/cell
     absolute magnetization    =     2.33 Bohr mag/cell

     iteration #  5     ecut=    40.00 Ry     beta= 0.70
     Davidson diagonalization with overlap
     ethr =  3.56E-09,  avg # of iterations =  1.6

     total cpu time spent up to now is      132.3 secs

     total energy              =    -250.34656300 Ry
     estimated scf accuracy    <       0.00000016 Ry

     total magnetization       =     2.21 Bohr mag/cell
     absolute magnetization    =     2.33 Bohr mag/cell

     iteration #  6     ecut=    40.00 Ry     beta= 0.70
     Davidson diagonalization with overlap
     ethr =  1.02E-09,  avg # of iterations =  2.1

     total cpu time spent up to now is      136.6 secs

     total energy              =    -250.34656353 Ry
     estimated scf accuracy    <       0.00000001 Ry

     total magnetization       =     2.21 Bohr mag/cell
     absolute magnetization    =     2.33 Bohr mag/cell

     iteration #  7     ecut=    40.00 Ry     beta= 0.70
     Davidson diagonalization with overlap
     ethr =  9.25E-11,  avg # of iterations =  2.1

     Magnetic moment per site  (integrated on atomic sphere of radius R)
     atom   1 (R=0.352)  charge= 14.3641  magn=  2.2604

     total cpu time spent up to now is      141.0 secs

     End of self-consistent calculation

     Number of k-points >= 100: set verbosity='high' to print the bands.

     the Fermi energy is    18.1918 ev

!    total energy              =    -250.34656359 Ry
     estimated scf accuracy    <          5.8E-09 Ry
     smearing contrib. (-TS)   =      -0.00000172 Ry
     internal energy E=F+TS    =    -250.34656187 Ry

     The total energy is F=E-TS. E is the sum of the following terms:
     one-electron contribution =    -113.38718424 Ry
     hartree contribution      =      66.31757398 Ry
     xc contribution           =     -29.22483252 Ry
     ewald contribution        =    -174.05211909 Ry

     total magnetization       =     2.21 Bohr mag/cell
     absolute magnetization    =     2.33 Bohr mag/cell

     convergence has been achieved in   7 iterations

     Forces acting on atoms (cartesian axes, Ry/au):

     atom    1 type  1   force =     0.00000000    0.00000000    0.00000000

     Total force =     0.000000     Total SCF correction =     0.000000


     Computing stress (Cartesian axis) and pressure

          total   stress  (Ry/bohr**3)                   (kbar)     P=        1.46
   0.00000992  -0.00000000   0.00000000            1.46       -0.00        0.00
  -0.00000000   0.00000992  -0.00000000           -0.00        1.46       -0.00
   0.00000000  -0.00000000   0.00000992            0.00       -0.00        1.46

     Energy error            =      4.8E-05 Ry
     Gradient error          =      0.0E+00 Ry/Bohr
     Cell gradient error     =      1.5E+00 kbar

     number of scf cycles    =   4
     number of bfgs steps    =   2

     enthalpy           old  =    -250.3465157502 Ry
     enthalpy           new  =    -250.3465635876 Ry

     CASE: enthalpy          _new < enthalpy          _old

     new trust radius        =       0.0001986464 bohr
ibrav =      3
 celldm(1) =      5.35327832
Input lattice vectors:
     0.49525054     0.49525054     0.49525054
    -0.49525054     0.49525054     0.49525054
    -0.49525054    -0.49525054     0.49525054
New lattice vectors in INITIAL alat:
     0.49525054     0.49525054     0.49525054
    -0.49525054     0.49525054     0.49525054
    -0.49525054    -0.49525054     0.49525054
New lattice vectors in NEW alat (for information only):
     0.50000000     0.50000000     0.50000000
    -0.50000000     0.50000000     0.50000000
    -0.50000000    -0.50000000     0.50000000
Discrepancy in bohr =     0.000000    0.000000    0.000000
     new conv_thr            =       0.0000000100 Ry

     new unit-cell volume =     76.70602 a.u.^3 (    11.36666 Ang^3 )
     density =      8.15832 g/cm^3

CELL_PARAMETERS (alat=  5.40461633)
   0.495250541   0.495250541   0.495250541
  -0.495250541   0.495250541   0.495250541
  -0.495250541  -0.495250541   0.495250541

ATOMIC_POSITIONS (crystal)
Fe               0.0000000000        0.0000000000        0.0000000000



     Writing config-only to output data dir ./tmp/Fe-CCC.save/ :
     XML data file
     NEW-OLD atomic charge density approx. for the potential
     New effective cutoffs (rho, wfc):  405.01   40.77

     Check: negative core charge=   -0.000043
     Generating pointlists ...

     total cpu time spent up to now is      143.0 secs

     Self-consistent Calculation

     iteration #  1     ecut=    40.00 Ry     beta= 0.70
     Davidson diagonalization with overlap
     ethr =  1.00E-06,  avg # of iterations =  2.0

     Threshold (ethr) on eigenvalues was too large:
     Diagonalizing with lowered threshold

     Davidson diagonalization with overlap
     ethr =  1.02E-09,  avg # of iterations =  1.0

     total cpu time spent up to now is      151.5 secs

     total energy              =    -250.34656377 Ry
     estimated scf accuracy    <       0.00000016 Ry

     total magnetization       =     2.21 Bohr mag/cell
     absolute magnetization    =     2.33 Bohr mag/cell

     iteration #  2     ecut=    40.00 Ry     beta= 0.70
     Davidson diagonalization with overlap
     ethr =  1.02E-09,  avg # of iterations =  2.1

     total cpu time spent up to now is      156.2 secs

     total energy              =    -250.34656375 Ry
     estimated scf accuracy    <       0.00000056 Ry

     total magnetization       =     2.21 Bohr mag/cell
     absolute magnetization    =     2.33 Bohr mag/cell

     iteration #  3     ecut=    40.00 Ry     beta= 0.70
     Davidson diagonalization with overlap
     ethr =  1.02E-09,  avg # of iterations =  2.0

     total cpu time spent up to now is      160.4 secs

     total energy              =    -250.34656385 Ry
     estimated scf accuracy    <       0.00000001 Ry

     total magnetization       =     2.21 Bohr mag/cell
     absolute magnetization    =     2.33 Bohr mag/cell

     iteration #  4     ecut=    40.00 Ry     beta= 0.70
     Davidson diagonalization with overlap
     ethr =  6.37E-11,  avg # of iterations =  1.6

     Magnetic moment per site  (integrated on atomic sphere of radius R)
     atom   1 (R=0.352)  charge= 14.3637  magn=  2.2619

     total cpu time spent up to now is      164.2 secs

     End of self-consistent calculation

     Number of k-points >= 100: set verbosity='high' to print the bands.

     the Fermi energy is    18.1838 ev

!    total energy              =    -250.34656386 Ry
     estimated scf accuracy    <          8.8E-10 Ry
     smearing contrib. (-TS)   =      -0.00000144 Ry
     internal energy E=F+TS    =    -250.34656242 Ry

     The total energy is F=E-TS. E is the sum of the following terms:
     one-electron contribution =    -113.41914834 Ry
     hartree contribution      =      66.32978971 Ry
     xc contribution           =     -29.22482437 Ry
     ewald contribution        =    -174.03237942 Ry

     total magnetization       =     2.21 Bohr mag/cell
     absolute magnetization    =     2.33 Bohr mag/cell

     convergence has been achieved in   4 iterations

     Forces acting on atoms (cartesian axes, Ry/au):

     atom    1 type  1   force =     0.00000000    0.00000000    0.00000000

     Total force =     0.000000     Total SCF correction =     0.000000


     Computing stress (Cartesian axis) and pressure

          total   stress  (Ry/bohr**3)                   (kbar)     P=        2.23
   0.00001515  -0.00000000   0.00000000            2.23       -0.00        0.00
  -0.00000000   0.00001515  -0.00000000           -0.00        2.23       -0.00
   0.00000000  -0.00000000   0.00001515            0.00       -0.00        2.23

     Energy error            =      2.7E-07 Ry
     Gradient error          =      0.0E+00 Ry/Bohr
     Cell gradient error     =      2.2E+00 kbar

     number of scf cycles    =   5
     number of bfgs steps    =   3

     enthalpy           old  =    -250.3465635876 Ry
     enthalpy           new  =    -250.3465638557 Ry

     CASE: enthalpy          _new < enthalpy          _old


     WARNING: bfgs curvature condition failed, Theta= 0.524
     small trust_radius: resetting bfgs history

     new trust radius        =       0.0001000000 bohr
ibrav =      3
 celldm(1) =      5.35358393
Input lattice vectors:
     0.49527881     0.49527881     0.49527881
    -0.49527881     0.49527881     0.49527881
    -0.49527881    -0.49527881     0.49527881
New lattice vectors in INITIAL alat:
     0.49527881     0.49527881     0.49527881
    -0.49527881     0.49527881     0.49527881
    -0.49527881    -0.49527881     0.49527881
New lattice vectors in NEW alat (for information only):
     0.50000000     0.50000000     0.50000000
    -0.50000000     0.50000000     0.50000000
    -0.50000000    -0.50000000     0.50000000
Discrepancy in bohr =     0.000000    0.000000    0.000000
     new conv_thr            =       0.0000000100 Ry

     new unit-cell volume =     76.71916 a.u.^3 (    11.36861 Ang^3 )
     density =      8.15692 g/cm^3

CELL_PARAMETERS (alat=  5.40461633)
   0.495278814   0.495278814   0.495278814
  -0.495278814   0.495278814   0.495278814
  -0.495278814  -0.495278814   0.495278814

ATOMIC_POSITIONS (crystal)
Fe               0.0000000000        0.0000000000        0.0000000000



     Writing config-only to output data dir ./tmp/Fe-CCC.save/ :
     XML data file
     NEW-OLD atomic charge density approx. for the potential
     New effective cutoffs (rho, wfc):  404.97   40.76

     Check: negative core charge=   -0.000043
     Generating pointlists ...

     total cpu time spent up to now is      166.2 secs

     Self-consistent Calculation

     iteration #  1     ecut=    40.00 Ry     beta= 0.70
     Davidson diagonalization with overlap
     ethr =  1.00E-06,  avg # of iterations =  2.0

     Threshold (ethr) on eigenvalues was too large:
     Diagonalizing with lowered threshold

     Davidson diagonalization with overlap
     ethr =  4.68E-11,  avg # of iterations =  1.0

     Magnetic moment per site  (integrated on atomic sphere of radius R)
     atom   1 (R=0.352)  charge= 14.3636  magn=  2.2621

     total cpu time spent up to now is      175.1 secs

     End of self-consistent calculation

     Number of k-points >= 100: set verbosity='high' to print the bands.

     the Fermi energy is    18.1798 ev

!    total energy              =    -250.34656395 Ry
     estimated scf accuracy    <          7.3E-09 Ry
     smearing contrib. (-TS)   =      -0.00000139 Ry
     internal energy E=F+TS    =    -250.34656256 Ry

     The total energy is F=E-TS. E is the sum of the following terms:
     one-electron contribution =    -113.43541709 Ry
     hartree contribution      =      66.33609474 Ry
     xc contribution           =     -29.22479562 Ry
     ewald contribution        =    -174.02244459 Ry

     total magnetization       =     2.21 Bohr mag/cell
     absolute magnetization    =     2.33 Bohr mag/cell

     convergence has been achieved in   1 iterations

     Forces acting on atoms (cartesian axes, Ry/au):

     atom    1 type  1   force =     0.00000000    0.00000000    0.00000000

     Total force =     0.000000     Total SCF correction =     0.000000


     Computing stress (Cartesian axis) and pressure

          total   stress  (Ry/bohr**3)                   (kbar)     P=        3.36
   0.00002285  -0.00000000   0.00000000            3.36       -0.00        0.00
  -0.00000000   0.00002285  -0.00000000           -0.00        3.36       -0.00
   0.00000000  -0.00000000   0.00002285            0.00       -0.00        3.36

     Energy error            =      9.0E-08 Ry
     Gradient error          =      0.0E+00 Ry/Bohr
     Cell gradient error     =      3.4E+00 kbar

     number of scf cycles    =   6
     number of bfgs steps    =   4

     enthalpy           old  =    -250.3465638557 Ry
     enthalpy           new  =    -250.3465639456 Ry

     CASE: enthalpy          _new < enthalpy          _old


     WARNING: bfgs curvature condition failed, Theta= 0.183
     new trust radius        =       0.0001500043 bohr
ibrav =      3
 celldm(1) =      5.35404235
Input lattice vectors:
     0.49532122     0.49532122     0.49532122
    -0.49532122     0.49532122     0.49532122
    -0.49532122    -0.49532122     0.49532122
New lattice vectors in INITIAL alat:
     0.49532122     0.49532122     0.49532122
    -0.49532122     0.49532122     0.49532122
    -0.49532122    -0.49532122     0.49532122
New lattice vectors in NEW alat (for information only):
     0.50000000     0.50000000     0.50000000
    -0.50000000     0.50000000     0.50000000
    -0.50000000    -0.50000000     0.50000000
Discrepancy in bohr =     0.000000    0.000000    0.000000
     new conv_thr            =       0.0000000100 Ry

     new unit-cell volume =     76.73887 a.u.^3 (    11.37153 Ang^3 )
     density =      8.15482 g/cm^3

CELL_PARAMETERS (alat=  5.40461633)
   0.495321225   0.495321225   0.495321225
  -0.495321225   0.495321225   0.495321225
  -0.495321225  -0.495321225   0.495321225

ATOMIC_POSITIONS (crystal)
Fe               0.0000000000        0.0000000000        0.0000000000



     Writing config-only to output data dir ./tmp/Fe-CCC.save/ :
     XML data file
     NEW-OLD atomic charge density approx. for the potential
     New effective cutoffs (rho, wfc):  404.90   40.75

     Check: negative core charge=   -0.000043
     Generating pointlists ...

     total cpu time spent up to now is      177.4 secs

     Self-consistent Calculation

     iteration #  1     ecut=    40.00 Ry     beta= 0.70
     Davidson diagonalization with overlap
     ethr =  1.00E-06,  avg # of iterations =  2.0

     Threshold (ethr) on eigenvalues was too large:
     Diagonalizing with lowered threshold

     Davidson diagonalization with overlap
     ethr =  4.22E-11,  avg # of iterations =  1.0

     Magnetic moment per site  (integrated on atomic sphere of radius R)
     atom   1 (R=0.352)  charge= 14.3632  magn=  2.2625

     total cpu time spent up to now is      186.9 secs

     End of self-consistent calculation

     Number of k-points >= 100: set verbosity='high' to print the bands.

     the Fermi energy is    18.1741 ev

!    total energy              =    -250.34656404 Ry
     estimated scf accuracy    <          6.5E-09 Ry
     smearing contrib. (-TS)   =      -0.00000130 Ry
     internal energy E=F+TS    =    -250.34656274 Ry

     The total energy is F=E-TS. E is the sum of the following terms:
     one-electron contribution =    -113.45859902 Ry
     hartree contribution      =      66.34413859 Ry
     xc contribution           =     -29.22455784 Ry
     ewald contribution        =    -174.00754447 Ry

     total magnetization       =     2.21 Bohr mag/cell
     absolute magnetization    =     2.33 Bohr mag/cell

     convergence has been achieved in   1 iterations

     Forces acting on atoms (cartesian axes, Ry/au):

     atom    1 type  1   force =     0.00000000    0.00000000    0.00000000

     Total force =     0.000000     Total SCF correction =     0.000000


     Computing stress (Cartesian axis) and pressure

          total   stress  (Ry/bohr**3)                   (kbar)     P=        0.89
   0.00000607   0.00000000  -0.00000000            0.89        0.00       -0.00
   0.00000000   0.00000607   0.00000000            0.00        0.89        0.00
  -0.00000000   0.00000000   0.00000607           -0.00        0.00        0.89

     Energy error            =      9.0E-08 Ry
     Gradient error          =      0.0E+00 Ry/Bohr
     Cell gradient error     =      8.9E-01 kbar

     number of scf cycles    =   7
     number of bfgs steps    =   5

     enthalpy           old  =    -250.3465639456 Ry
     enthalpy           new  =    -250.3465640355 Ry

     CASE: enthalpy          _new < enthalpy          _old

     small trust_radius: resetting bfgs history

     new trust radius        =       0.0001000000 bohr
ibrav =      3
 celldm(1) =      5.35434795
Input lattice vectors:
     0.49534950     0.49534950     0.49534950
    -0.49534950     0.49534950     0.49534950
    -0.49534950    -0.49534950     0.49534950
New lattice vectors in INITIAL alat:
     0.49534950     0.49534950     0.49534950
    -0.49534950     0.49534950     0.49534950
    -0.49534950    -0.49534950     0.49534950
New lattice vectors in NEW alat (for information only):
     0.50000000     0.50000000     0.50000000
    -0.50000000     0.50000000     0.50000000
    -0.50000000    -0.50000000     0.50000000
Discrepancy in bohr =     0.000000    0.000000    0.000000
     new conv_thr            =       0.0000000100 Ry

     new unit-cell volume =     76.75201 a.u.^3 (    11.37347 Ang^3 )
     density =      8.15343 g/cm^3

CELL_PARAMETERS (alat=  5.40461633)
   0.495349496   0.495349496   0.495349496
  -0.495349496   0.495349496   0.495349496
  -0.495349496  -0.495349496   0.495349496

ATOMIC_POSITIONS (crystal)
Fe               0.0000000000        0.0000000000        0.0000000000



     Writing config-only to output data dir ./tmp/Fe-CCC.save/ :
     XML data file
     NEW-OLD atomic charge density approx. for the potential
     New effective cutoffs (rho, wfc):  404.85   40.75

     Check: negative core charge=   -0.000043
     Generating pointlists ...

     total cpu time spent up to now is      189.0 secs

     Self-consistent Calculation

     iteration #  1     ecut=    40.00 Ry     beta= 0.70
     Davidson diagonalization with overlap
     ethr =  1.00E-06,  avg # of iterations =  2.0

     Threshold (ethr) on eigenvalues was too large:
     Diagonalizing with lowered threshold

     Davidson diagonalization with overlap
     ethr =  1.45E-10,  avg # of iterations =  1.0

     total cpu time spent up to now is      198.1 secs

     total energy              =    -250.34656405 Ry
     estimated scf accuracy    <       0.00000002 Ry

     total magnetization       =     2.21 Bohr mag/cell
     absolute magnetization    =     2.34 Bohr mag/cell

     iteration #  2     ecut=    40.00 Ry     beta= 0.70
     Davidson diagonalization with overlap
     ethr =  1.43E-10,  avg # of iterations =  2.1

     total cpu time spent up to now is      203.2 secs

     total energy              =    -250.34656405 Ry
     estimated scf accuracy    <       0.00000006 Ry

     total magnetization       =     2.21 Bohr mag/cell
     absolute magnetization    =     2.33 Bohr mag/cell

     iteration #  3     ecut=    40.00 Ry     beta= 0.70
     Davidson diagonalization with overlap
     ethr =  1.43E-10,  avg # of iterations =  2.0

     Magnetic moment per site  (integrated on atomic sphere of radius R)
     atom   1 (R=0.352)  charge= 14.3631  magn=  2.2631

     total cpu time spent up to now is      207.8 secs

     End of self-consistent calculation

     Number of k-points >= 100: set verbosity='high' to print the bands.

     the Fermi energy is    18.1701 ev

!    total energy              =    -250.34656406 Ry
     estimated scf accuracy    <          3.2E-09 Ry
     smearing contrib. (-TS)   =      -0.00000117 Ry
     internal energy E=F+TS    =    -250.34656289 Ry

     The total energy is F=E-TS. E is the sum of the following terms:
     one-electron contribution =    -113.47464276 Ry
     hartree contribution      =      66.35022265 Ry
     xc contribution           =     -29.22452961 Ry
     ewald contribution        =    -173.99761318 Ry

     total magnetization       =     2.21 Bohr mag/cell
     absolute magnetization    =     2.34 Bohr mag/cell

     convergence has been achieved in   3 iterations

     Forces acting on atoms (cartesian axes, Ry/au):

     atom    1 type  1   force =     0.00000000    0.00000000    0.00000000

     Total force =     0.000000     Total SCF correction =     0.000000


     Computing stress (Cartesian axis) and pressure

          total   stress  (Ry/bohr**3)                   (kbar)     P=        1.26
   0.00000860  -0.00000000   0.00000000            1.26       -0.00        0.00
  -0.00000000   0.00000860  -0.00000000           -0.00        1.26       -0.00
   0.00000000  -0.00000000   0.00000860            0.00       -0.00        1.26

     Energy error            =      2.8E-08 Ry
     Gradient error          =      0.0E+00 Ry/Bohr
     Cell gradient error     =      1.3E+00 kbar

     number of scf cycles    =   8
     number of bfgs steps    =   6

     enthalpy           old  =    -250.3465640355 Ry
     enthalpy           new  =    -250.3465640631 Ry

     CASE: enthalpy          _new < enthalpy          _old


     WARNING: bfgs curvature condition failed, Theta= 0.380
     new trust radius        =       0.0001500043 bohr
ibrav =      3
 celldm(1) =      5.35480634
Input lattice vectors:
     0.49539190     0.49539190     0.49539190
    -0.49539190     0.49539190     0.49539190
    -0.49539190    -0.49539190     0.49539190
New lattice vectors in INITIAL alat:
     0.49539190     0.49539190     0.49539190
    -0.49539190     0.49539190     0.49539190
    -0.49539190    -0.49539190     0.49539190
New lattice vectors in NEW alat (for information only):
     0.50000000     0.50000000     0.50000000
    -0.50000000     0.50000000     0.50000000
    -0.50000000    -0.50000000     0.50000000
Discrepancy in bohr =     0.000000    0.000000    0.000000
     new conv_thr            =       0.0000000100 Ry

     new unit-cell volume =     76.77173 a.u.^3 (    11.37640 Ang^3 )
     density =      8.15133 g/cm^3

CELL_PARAMETERS (alat=  5.40461633)
   0.495391903   0.495391903   0.495391903
  -0.495391903   0.495391903   0.495391903
  -0.495391903  -0.495391903   0.495391903

ATOMIC_POSITIONS (crystal)
Fe               0.0000000000        0.0000000000        0.0000000000



     Writing config-only to output data dir ./tmp/Fe-CCC.save/ :
     XML data file
     NEW-OLD atomic charge density approx. for the potential
     New effective cutoffs (rho, wfc):  404.78   40.74

     Check: negative core charge=   -0.000043
     Generating pointlists ...

     total cpu time spent up to now is      210.2 secs

     Self-consistent Calculation

     iteration #  1     ecut=    40.00 Ry     beta= 0.70
     Davidson diagonalization with overlap
     ethr =  1.00E-06,  avg # of iterations =  2.0

     Threshold (ethr) on eigenvalues was too large:
     Diagonalizing with lowered threshold

     Davidson diagonalization with overlap
     ethr =  1.77E-10,  avg # of iterations =  1.0

     total cpu time spent up to now is      218.4 secs

     total energy              =    -250.34656404 Ry
     estimated scf accuracy    <       0.00000003 Ry

     total magnetization       =     2.21 Bohr mag/cell
     absolute magnetization    =     2.34 Bohr mag/cell

     iteration #  2     ecut=    40.00 Ry     beta= 0.70
     Davidson diagonalization with overlap
     ethr =  1.73E-10,  avg # of iterations =  2.1

     total cpu time spent up to now is      223.6 secs

     total energy              =    -250.34656403 Ry
     estimated scf accuracy    <       0.00000008 Ry

     total magnetization       =     2.21 Bohr mag/cell
     absolute magnetization    =     2.34 Bohr mag/cell

     iteration #  3     ecut=    40.00 Ry     beta= 0.70
     Davidson diagonalization with overlap
     ethr =  1.73E-10,  avg # of iterations =  2.0

     Magnetic moment per site  (integrated on atomic sphere of radius R)
     atom   1 (R=0.352)  charge= 14.3628  magn=  2.2636

     total cpu time spent up to now is      228.2 secs

     End of self-consistent calculation

     Number of k-points >= 100: set verbosity='high' to print the bands.

     the Fermi energy is    18.1641 ev

!    total energy              =    -250.34656405 Ry
     estimated scf accuracy    <          2.7E-09 Ry
     smearing contrib. (-TS)   =      -0.00000104 Ry
     internal energy E=F+TS    =    -250.34656301 Ry

     The total energy is F=E-TS. E is the sum of the following terms:
     one-electron contribution =    -113.49837171 Ry
     hartree contribution      =      66.35892497 Ry
     xc contribution           =     -29.22439789 Ry
     ewald contribution        =    -173.98271837 Ry

     total magnetization       =     2.21 Bohr mag/cell
     absolute magnetization    =     2.34 Bohr mag/cell

     convergence has been achieved in   3 iterations

     Forces acting on atoms (cartesian axes, Ry/au):

     atom    1 type  1   force =     0.00000000    0.00000000    0.00000000

     Total force =     0.000000     Total SCF correction =     0.000000


     Computing stress (Cartesian axis) and pressure

          total   stress  (Ry/bohr**3)                   (kbar)     P=        0.68
   0.00000462   0.00000000  -0.00000000            0.68        0.00       -0.00
   0.00000000   0.00000462   0.00000000            0.00        0.68        0.00
  -0.00000000   0.00000000   0.00000462           -0.00        0.00        0.68

     Energy error            =      1.4E-08 Ry
     Gradient error          =      0.0E+00 Ry/Bohr
     Cell gradient error     =      6.8E-01 kbar

     number of scf cycles    =   9
     number of bfgs steps    =   7

     enthalpy           old  =    -250.3465640631 Ry
     enthalpy           new  =    -250.3465640491 Ry

     CASE: enthalpy          _new > enthalpy          _old

     new trust radius        =       0.0000692748 bohr

     trust_radius < trust_radius_min

     resetting bfgs history

ibrav =      3
 celldm(1) =      5.35549865
Input lattice vectors:
     0.49545595     0.49545595     0.49545595
    -0.49545595     0.49545595     0.49545595
    -0.49545595    -0.49545595     0.49545595
New lattice vectors in INITIAL alat:
     0.49545595     0.49545595     0.49545595
    -0.49545595     0.49545595     0.49545595
    -0.49545595    -0.49545595     0.49545595
New lattice vectors in NEW alat (for information only):
     0.50000000     0.50000000     0.50000000
    -0.50000000     0.50000000     0.50000000
    -0.50000000    -0.50000000     0.50000000
Discrepancy in bohr =     0.000000    0.000000    0.000000
     new conv_thr            =       0.0000000100 Ry

     new unit-cell volume =     76.80151 a.u.^3 (    11.38081 Ang^3 )
     density =      8.14817 g/cm^3

CELL_PARAMETERS (alat=  5.40461633)
   0.495455951   0.495455951   0.495455951
  -0.495455951   0.495455951   0.495455951
  -0.495455951  -0.495455951   0.495455951

ATOMIC_POSITIONS (crystal)
Fe               0.0000000000        0.0000000000        0.0000000000



     Writing config-only to output data dir ./tmp/Fe-CCC.save/ :
     XML data file
     NEW-OLD atomic charge density approx. for the potential
     New effective cutoffs (rho, wfc):  404.68   40.73

     Check: negative core charge=   -0.000043
     Generating pointlists ...

     total cpu time spent up to now is      230.3 secs

     Self-consistent Calculation

     iteration #  1     ecut=    40.00 Ry     beta= 0.70
     Davidson diagonalization with overlap
     ethr =  1.00E-06,  avg # of iterations =  2.0

     Threshold (ethr) on eigenvalues was too large:
     Diagonalizing with lowered threshold

     Davidson diagonalization with overlap
     ethr =  5.61E-10,  avg # of iterations =  1.0

     total cpu time spent up to now is      238.1 secs

     total energy              =    -250.34656386 Ry
     estimated scf accuracy    <       0.00000009 Ry

     total magnetization       =     2.21 Bohr mag/cell
     absolute magnetization    =     2.34 Bohr mag/cell

     iteration #  2     ecut=    40.00 Ry     beta= 0.70
     Davidson diagonalization with overlap
     ethr =  5.53E-10,  avg # of iterations =  2.1

     total cpu time spent up to now is      242.8 secs

     total energy              =    -250.34656385 Ry
     estimated scf accuracy    <       0.00000029 Ry

     total magnetization       =     2.21 Bohr mag/cell
     absolute magnetization    =     2.34 Bohr mag/cell

     iteration #  3     ecut=    40.00 Ry     beta= 0.70
     Davidson diagonalization with overlap
     ethr =  5.53E-10,  avg # of iterations =  2.0

     Magnetic moment per site  (integrated on atomic sphere of radius R)
     atom   1 (R=0.352)  charge= 14.3623  magn=  2.2643

     total cpu time spent up to now is      247.4 secs

     End of self-consistent calculation

     Number of k-points >= 100: set verbosity='high' to print the bands.

     the Fermi energy is    18.1551 ev

!    total energy              =    -250.34656391 Ry
     estimated scf accuracy    <          3.8E-09 Ry
     smearing contrib. (-TS)   =      -0.00000088 Ry
     internal energy E=F+TS    =    -250.34656303 Ry

     The total energy is F=E-TS. E is the sum of the following terms:
     one-electron contribution =    -113.53425265 Ry
     hartree contribution      =      66.37211124 Ry
     xc contribution           =     -29.22419407 Ry
     ewald contribution        =    -173.96022754 Ry

     total magnetization       =     2.21 Bohr mag/cell
     absolute magnetization    =     2.34 Bohr mag/cell

     convergence has been achieved in   3 iterations

     Forces acting on atoms (cartesian axes, Ry/au):

     atom    1 type  1   force =     0.00000000    0.00000000    0.00000000

     Total force =     0.000000     Total SCF correction =     0.000000


     Computing stress (Cartesian axis) and pressure

          total   stress  (Ry/bohr**3)                   (kbar)     P=        0.02
   0.00000016   0.00000000  -0.00000000            0.02        0.00       -0.00
   0.00000000   0.00000016   0.00000000            0.00        0.02        0.00
  -0.00000000   0.00000000   0.00000016           -0.00        0.00        0.02

     Energy error            =      1.6E-07 Ry
     Gradient error          =      0.0E+00 Ry/Bohr
     Cell gradient error     =      2.3E-02 kbar
ibrav =      3
 celldm(1) =      5.35549865
Input lattice vectors:
     0.49545595     0.49545595     0.49545595
    -0.49545595     0.49545595     0.49545595
    -0.49545595    -0.49545595     0.49545595
New lattice vectors in INITIAL alat:
     0.49545595     0.49545595     0.49545595
    -0.49545595     0.49545595     0.49545595
    -0.49545595    -0.49545595     0.49545595
New lattice vectors in NEW alat (for information only):
     0.50000000     0.50000000     0.50000000
    -0.50000000     0.50000000     0.50000000
    -0.50000000    -0.50000000     0.50000000
Discrepancy in bohr =     0.000000    0.000000    0.000000

     bfgs converged in  10 scf cycles and   7 bfgs steps
     (criteria: energy <  1.0E-05 Ry, force <  1.0E-04 Ry/Bohr, cell <  5.0E-01 kbar)

     End of BFGS Geometry Optimization

     Final enthalpy           =    -250.3465639057 Ry

     File ./tmp/Fe-CCC.bfgs deleted, as requested
Begin final coordinates
     new unit-cell volume =     76.80151 a.u.^3 (    11.38081 Ang^3 )
     density =      8.14817 g/cm^3

CELL_PARAMETERS (alat=  5.40461633)
   0.495455951   0.495455951   0.495455951
  -0.495455951   0.495455951   0.495455951
  -0.495455951  -0.495455951   0.495455951

ATOMIC_POSITIONS (crystal)
Fe               0.0000000000        0.0000000000        0.0000000000
End final coordinates



     Writing config-only to output data dir ./tmp/Fe-CCC.save/ :
     XML data file

     Final scf calculation at the relaxed structure.
     The G-vectors are recalculated for the final unit cell
     Results may differ from those at the preceding step.

     G-vector sticks info
     --------------------
     sticks:   dense  smooth     PW     G-vecs:    dense   smooth      PW
     Sum         645     261     91                10425     2659     555

     Using Slab Decomposition


     Title: 
     Fe-CCC                                                                     


     bravais-lattice index     =            3
     lattice parameter (alat)  =       5.4046  a.u.
     unit-cell volume          =      76.8015 (a.u.)^3
     number of atoms/cell      =            1
     number of atomic types    =            1
     number of electrons       =        16.00
     number of Kohn-Sham states=           12
     kinetic-energy cutoff     =      40.0000  Ry
     charge density cutoff     =     400.0000  Ry
     scf convergence threshold =      1.0E-08
     mixing beta               =       0.7000
     number of iterations used =            8  plain     mixing
     press convergence thresh. =      5.0E-01
     Exchange-correlation=  SLA  PW   PBX  PBC
                           (   1   4   3   4   0   0   0)

     celldm(1)=   5.404616  celldm(2)=   0.000000  celldm(3)=   0.000000
     celldm(4)=   0.000000  celldm(5)=   0.000000  celldm(6)=   0.000000

     crystal axes: (cart. coord. in units of alat)
               a(1) = (   0.495456   0.495456   0.495456 )  
               a(2) = (  -0.495456   0.495456   0.495456 )  
               a(3) = (  -0.495456  -0.495456   0.495456 )  

     reciprocal axes: (cart. coord. in units 2 pi/alat)
               b(1) = (  1.009171  0.000000  1.009171 )  
               b(2) = ( -1.009171  1.009171  0.000000 )  
               b(3) = (  0.000000 -1.009171  1.009171 )  


     PseudoPot. # 1 for Fe read from file:
     ../pseudos/fe_pbe_v1.5.uspp.F.UPF
     MD5 check sum: a130daea23fe5165f5d574ae7f82ed95
     Pseudo is Ultrasoft + core correction, Zval = 16.0
     Generated by new atomic code, or converted to UPF format
     Using radial grid of  861 points,  6 beta functions with: 
                l(1) =   0
                l(2) =   0
                l(3) =   1
                l(4) =   1
                l(5) =   2
                l(6) =   2
     Q(r) pseudized with  8 coefficients,  rinner =    1.000   1.000   1.000
                                                       1.000   1.000

     atomic species   valence    mass     pseudopotential
     Fe               16.00    55.84500     Fe( 1.00)

     Starting magnetic structure 
     atomic species   magnetization
     Fe              0.158

     48 Sym. Ops., with inversion, found



   Cartesian axes

     site n.     atom                  positions (alat units)
         1        Fe     tau(   1) = (   0.0000000   0.0000000   0.0000000  )

     number of k points=   250  Marzari-Vanderbilt smearing, width (Ry)=  0.0010

     Number of k-points >= 100: set verbosity='high' to print them.

     Dense  grid:    10425 G-vectors     FFT dimensions: (  30,  30,  30)

     Smooth grid:     2659 G-vectors     FFT dimensions: (  20,  20,  20)

     Estimated max dynamical RAM per process >      76.02 MB

     Check: negative core charge=   -0.000042
     Generating pointlists ...

     Initial potential from superposition of free atoms

     starting charge      15.0000, renormalised to      16.0000
     Starting wfcs are   13 randomized atomic wfcs

     total cpu time spent up to now is      251.4 secs

     Self-consistent Calculation

     iteration #  1     ecut=    40.00 Ry     beta= 0.70
     Davidson diagonalization with overlap
     c_bands:  1 eigenvalues not converged
     ethr =  1.00E-06,  avg # of iterations =  9.8

     total cpu time spent up to now is      263.8 secs

     total energy              =    -249.05537519 Ry
     estimated scf accuracy    <       2.32766592 Ry

     total magnetization       =     1.86 Bohr mag/cell
     absolute magnetization    =     1.86 Bohr mag/cell

     iteration #  2     ecut=    40.00 Ry     beta= 0.70
     Davidson diagonalization with overlap
     ethr =  1.00E-02,  avg # of iterations =  2.7

     total cpu time spent up to now is      268.9 secs

     total energy              =    -249.27539583 Ry
     estimated scf accuracy    <       6.28868045 Ry

     total magnetization       =     2.02 Bohr mag/cell
     absolute magnetization    =     2.03 Bohr mag/cell

     iteration #  3     ecut=    40.00 Ry     beta= 0.70
     Davidson diagonalization with overlap
     ethr =  1.00E-02,  avg # of iterations =  2.0

     total cpu time spent up to now is      273.8 secs

     total energy              =    -250.34469195 Ry
     estimated scf accuracy    <       0.00533895 Ry

     total magnetization       =     2.13 Bohr mag/cell
     absolute magnetization    =     2.18 Bohr mag/cell

     iteration #  4     ecut=    40.00 Ry     beta= 0.70
     Davidson diagonalization with overlap
     ethr =  3.34E-05,  avg # of iterations =  2.0

     total cpu time spent up to now is      278.0 secs

     total energy              =    -250.34585530 Ry
     estimated scf accuracy    <       0.00167833 Ry

     total magnetization       =     2.16 Bohr mag/cell
     absolute magnetization    =     2.23 Bohr mag/cell

     iteration #  5     ecut=    40.00 Ry     beta= 0.70
     Davidson diagonalization with overlap
     ethr =  1.05E-05,  avg # of iterations =  1.8

     total cpu time spent up to now is      282.3 secs

     total energy              =    -250.34646792 Ry
     estimated scf accuracy    <       0.00044333 Ry

     total magnetization       =     2.19 Bohr mag/cell
     absolute magnetization    =     2.30 Bohr mag/cell

     iteration #  6     ecut=    40.00 Ry     beta= 0.70
     Davidson diagonalization with overlap
     ethr =  2.77E-06,  avg # of iterations =  1.4

     total cpu time spent up to now is      286.2 secs

     total energy              =    -250.34652090 Ry
     estimated scf accuracy    <       0.00009268 Ry

     total magnetization       =     2.20 Bohr mag/cell
     absolute magnetization    =     2.31 Bohr mag/cell

     iteration #  7     ecut=    40.00 Ry     beta= 0.70
     Davidson diagonalization with overlap
     ethr =  5.79E-07,  avg # of iterations =  1.8

     total cpu time spent up to now is      290.4 secs

     total energy              =    -250.34653776 Ry
     estimated scf accuracy    <       0.00003896 Ry

     total magnetization       =     2.21 Bohr mag/cell
     absolute magnetization    =     2.33 Bohr mag/cell

     iteration #  8     ecut=    40.00 Ry     beta= 0.70
     Davidson diagonalization with overlap
     ethr =  2.44E-07,  avg # of iterations =  1.5

     total cpu time spent up to now is      294.4 secs

     total energy              =    -250.34654356 Ry
     estimated scf accuracy    <       0.00000099 Ry

     total magnetization       =     2.21 Bohr mag/cell
     absolute magnetization    =     2.33 Bohr mag/cell

     iteration #  9     ecut=    40.00 Ry     beta= 0.70
     Davidson diagonalization with overlap
     ethr =  6.16E-09,  avg # of iterations =  1.7

     total cpu time spent up to now is      298.4 secs

     total energy              =    -250.34654410 Ry
     estimated scf accuracy    <       0.00000072 Ry

     total magnetization       =     2.21 Bohr mag/cell
     absolute magnetization    =     2.34 Bohr mag/cell

     iteration # 10     ecut=    40.00 Ry     beta= 0.70
     Davidson diagonalization with overlap
     ethr =  4.52E-09,  avg # of iterations =  1.3

     total cpu time spent up to now is      302.5 secs

     total energy              =    -250.34654413 Ry
     estimated scf accuracy    <       0.00000011 Ry

     total magnetization       =     2.21 Bohr mag/cell
     absolute magnetization    =     2.34 Bohr mag/cell

     iteration # 11     ecut=    40.00 Ry     beta= 0.70
     Davidson diagonalization with overlap
     ethr =  7.01E-10,  avg # of iterations =  1.9

     Magnetic moment per site  (integrated on atomic sphere of radius R)
     atom   1 (R=0.352)  charge= 14.3623  magn=  2.2645

     total cpu time spent up to now is      306.8 secs

     End of self-consistent calculation

     Number of k-points >= 100: set verbosity='high' to print the bands.

     the Fermi energy is    18.1553 ev

!    total energy              =    -250.34654415 Ry
     estimated scf accuracy    <          4.3E-10 Ry
     smearing contrib. (-TS)   =      -0.00000081 Ry
     internal energy E=F+TS    =    -250.34654334 Ry

     The total energy is F=E-TS. E is the sum of the following terms:
     one-electron contribution =    -113.53414372 Ry
     hartree contribution      =      66.37202213 Ry
     xc contribution           =     -29.22419420 Ry
     ewald contribution        =    -173.96022754 Ry

     total magnetization       =     2.21 Bohr mag/cell
     absolute magnetization    =     2.34 Bohr mag/cell

     convergence has been achieved in  11 iterations

     Forces acting on atoms (cartesian axes, Ry/au):

     atom    1 type  1   force =     0.00000000    0.00000000    0.00000000

     Total force =     0.000000     Total SCF correction =     0.000000


     Computing stress (Cartesian axis) and pressure

          total   stress  (Ry/bohr**3)                   (kbar)     P=       -0.25
  -0.00000167   0.00000000  -0.00000000           -0.25        0.00       -0.00
   0.00000000  -0.00000167   0.00000000            0.00       -0.25        0.00
  -0.00000000   0.00000000  -0.00000167           -0.00        0.00       -0.25


     Writing all to output data dir ./tmp/Fe-CCC.save/ :
     XML data file, charge density, pseudopotentials, collected wavefunctions

     init_run     :      3.80s CPU      4.00s WALL (       2 calls)
     electrons    :    270.08s CPU    280.76s WALL (      11 calls)
     update_pot   :      0.33s CPU      0.38s WALL (       9 calls)
     forces       :      4.65s CPU      4.98s WALL (      11 calls)
     stress       :     17.08s CPU     17.67s WALL (      11 calls)

     Called by init_run:
     wfcinit      :      3.14s CPU      3.28s WALL (       2 calls)
     potinit      :      0.11s CPU      0.12s WALL (       2 calls)
     hinit0       :      0.44s CPU      0.45s WALL (       2 calls)

     Called by electrons:
     c_bands      :    229.19s CPU    238.30s WALL (      62 calls)
     sum_band     :     36.54s CPU     38.00s WALL (      62 calls)
     v_of_rho     :      1.89s CPU      1.96s WALL (      67 calls)
     newd         :      2.96s CPU      3.06s WALL (      67 calls)
     mix_rho      :      0.10s CPU      0.11s WALL (      62 calls)

     Called by c_bands:
     init_us_2    :      6.55s CPU      6.88s WALL (   74000 calls)
     cegterg      :    218.69s CPU    227.12s WALL (   31000 calls)

     Called by *egterg:
     cdiaghg      :     12.79s CPU     13.26s WALL (   85305 calls)
     h_psi        :    162.94s CPU    169.44s WALL (   93805 calls)
     s_psi        :      7.24s CPU      7.56s WALL (   93805 calls)
     g_psi        :      0.85s CPU      0.88s WALL (   61805 calls)

     Called by h_psi:
     h_psi:calbec :      8.78s CPU      9.12s WALL (   93805 calls)
     vloc_psi     :    145.02s CPU    150.78s WALL (   93805 calls)
     add_vuspsi   :      7.53s CPU      7.83s WALL (   93805 calls)

     General routines
     calbec       :     21.05s CPU     22.08s WALL (  218305 calls)
     fft          :      0.78s CPU      0.80s WALL (    2114 calls)
     ffts         :      0.03s CPU      0.03s WALL (     258 calls)
     fftw         :    139.98s CPU    145.33s WALL ( 2252234 calls)
     interpolate  :      0.08s CPU      0.08s WALL (     134 calls)


     PWSCF        :   4m56.69s CPU   5m 8.95s WALL


   This run was terminated on:  19:36:21  28Jun2025            

=------------------------------------------------------------------------------=
   JOB DONE.
=------------------------------------------------------------------------------=
