
     Program PWSCF v.7.4.1 starts on 25Jun2025 at 23:17:22 

     This program is part of the open-source Quantum ESPRESSO suite
     for quantum simulation of materials; please cite
         "P. Giannozzi et al., J. Phys.:Condens. Matter 21 395502 (2009);
         "P. Giannozzi et al., J. Phys.:Condens. Matter 29 465901 (2017);
         "P. Giannozzi et al., J. Chem. Phys. 152 154105 (2020);
          URL http://www.quantum-espresso.org", 
     in publications or presentations arising from this work. More details at
     http://www.quantum-espresso.org/quote

     Serial version
     3261 MiB available memory on the printing compute node when the environment starts

     Reading input from scf_20Ry.in

     Current dimensions of program PWSCF are:
     Max number of different atomic species (ntypx) = 10
     Max number of k-points (npk) =  40000
     Max angular momentum in pseudopotentials (lmaxx) =  4


     G-vector sticks info
     --------------------
     sticks:   dense  smooth     PW     G-vecs:    dense   smooth      PW
     Sum         241     121     45                 2945     1021     251

     Using Slab Decomposition


     Title: 
     FeSi                                                                       


     bravais-lattice index     =            1
     lattice parameter (alat)  =       4.4000  a.u.
     unit-cell volume          =      85.1840 (a.u.)^3
     number of atoms/cell      =            2
     number of atomic types    =            2
     number of electrons       =        20.00
     number of Kohn-Sham states=           14
     kinetic-energy cutoff     =      20.0000  Ry
     charge density cutoff     =     160.0000  Ry
     scf convergence threshold =      1.0E-08
     mixing beta               =       0.7000
     number of iterations used =            8  plain     mixing
     Exchange-correlation= SLA  PW   PBE  PBE
                           (   1   4   3   4   0   0   0)

     celldm(1)=   4.400000  celldm(2)=   0.000000  celldm(3)=   0.000000
     celldm(4)=   0.000000  celldm(5)=   0.000000  celldm(6)=   0.000000

     crystal axes: (cart. coord. in units of alat)
               a(1) = (   1.000000   0.000000   0.000000 )  
               a(2) = (   0.000000   1.000000   0.000000 )  
               a(3) = (   0.000000   0.000000   1.000000 )  

     reciprocal axes: (cart. coord. in units 2 pi/alat)
               b(1) = (  1.000000  0.000000  0.000000 )  
               b(2) = (  0.000000  1.000000  0.000000 )  
               b(3) = (  0.000000  0.000000  1.000000 )  


     PseudoPot. # 1 for Fe read from file:
     ./pseudos/fe_pbe_v1.5.uspp.F.UPF
     MD5 check sum: a130daea23fe5165f5d574ae7f82ed95
     Pseudo is Ultrasoft + core correction, Zval = 16.0
     Generated by new atomic code, or converted to UPF format
     Using radial grid of  861 points,  6 beta functions with: 
                l(1) =   0
                l(2) =   0
                l(3) =   1
                l(4) =   1
                l(5) =   2
                l(6) =   2
     Q(r) pseudized with  8 coefficients,  rinner =    1.000   1.000   1.000
                                                       1.000   1.000

     PseudoPot. # 2 for Si read from file:
     ./pseudos/si_pbe_v1.uspp.F.UPF
     MD5 check sum: a056efeee980c13900f22a371efd63c1
     Pseudo is Ultrasoft + core correction, Zval =  4.0
     Generated by new atomic code, or converted to UPF format
     Using radial grid of  899 points,  6 beta functions with: 
                l(1) =   0
                l(2) =   0
                l(3) =   1
                l(4) =   1
                l(5) =   2
                l(6) =   2
     Q(r) pseudized with  8 coefficients,  rinner =    0.900   0.900   0.900
                                                       0.900   0.900

     atomic species   valence    mass     pseudopotential
     Fe               16.00    55.84500     Fe( 1.00)
     Si                4.00    28.08550     Si( 1.00)

      6 Sym. Ops. (no inversion) found ( 4 have fractional translation)



   Cartesian axes

     site n.     atom                  positions (alat units)
         1        Fe     tau(   1) = (   0.8630880   0.6369120   0.3630880  )
         2        Si     tau(   2) = (   0.1586980   0.3413020   0.6586980  )

     number of k points=   781  Marzari-Vanderbilt smearing, width (Ry)=  0.0010

     Number of k-points >= 100: set verbosity='high' to print them.

     Dense  grid:     2945 G-vectors     FFT dimensions: (  18,  18,  18)

     Smooth grid:     1021 G-vectors     FFT dimensions: (  16,  16,  16)

     Estimated max dynamical RAM per process >      33.76 MB

     Check: negative core charge=   -0.000040

     Initial potential from superposition of free atoms

     starting charge      18.9993, renormalised to      20.0000
     Starting wfcs are   17 randomized atomic wfcs

     total cpu time spent up to now is        1.5 secs

     Self-consistent Calculation

     iteration #  1     ecut=    20.00 Ry     beta= 0.70
     Davidson diagonalization with overlap
     ethr =  1.00E-02,  avg # of iterations =  3.5

     total cpu time spent up to now is        4.6 secs

     total energy              =    -256.29811686 Ry
     estimated scf accuracy    <       0.80027040 Ry

     iteration #  2     ecut=    20.00 Ry     beta= 0.70
     Davidson diagonalization with overlap
     ethr =  4.00E-03,  avg # of iterations =  2.0

     total cpu time spent up to now is        7.3 secs

     total energy              =    -256.26411700 Ry
     estimated scf accuracy    <       1.83994586 Ry

     iteration #  3     ecut=    20.00 Ry     beta= 0.70
     Davidson diagonalization with overlap
     ethr =  4.00E-03,  avg # of iterations =  2.0

     total cpu time spent up to now is        9.7 secs

     total energy              =    -256.61947937 Ry
     estimated scf accuracy    <       0.02752717 Ry

     iteration #  4     ecut=    20.00 Ry     beta= 0.70
     Davidson diagonalization with overlap
     ethr =  1.38E-04,  avg # of iterations =  1.6

     total cpu time spent up to now is       11.9 secs

     total energy              =    -256.62351653 Ry
     estimated scf accuracy    <       0.00014778 Ry

     iteration #  5     ecut=    20.00 Ry     beta= 0.70
     Davidson diagonalization with overlap
     ethr =  7.39E-07,  avg # of iterations =  3.6

     total cpu time spent up to now is       15.1 secs

     total energy              =    -256.62356770 Ry
     estimated scf accuracy    <       0.00000673 Ry

     iteration #  6     ecut=    20.00 Ry     beta= 0.70
     Davidson diagonalization with overlap
     ethr =  3.37E-08,  avg # of iterations =  2.4

     total cpu time spent up to now is       17.6 secs

     total energy              =    -256.62356904 Ry
     estimated scf accuracy    <       0.00000005 Ry

     iteration #  7     ecut=    20.00 Ry     beta= 0.70
     Davidson diagonalization with overlap
     ethr =  2.50E-10,  avg # of iterations =  3.6

     total cpu time spent up to now is       20.9 secs

     End of self-consistent calculation

     Number of k-points >= 100: set verbosity='high' to print the bands.

     the Fermi energy is    29.5700 ev

!    total energy              =    -256.62356908 Ry
     estimated scf accuracy    <          5.3E-09 Ry
     smearing contrib. (-TS)   =      -0.00000110 Ry
     internal energy E=F+TS    =    -256.62356798 Ry

     The total energy is F=E-TS. E is the sum of the following terms:
     one-electron contribution =    -106.78179766 Ry
     hartree contribution      =      74.37751417 Ry
     xc contribution           =     -35.54408093 Ry
     ewald contribution        =    -188.67520358 Ry

     convergence has been achieved in   7 iterations

     Writing all to output data dir ./tmp/fesi-sc.save/ :
     XML data file, charge density, pseudopotentials, collected wavefunctions

     init_run     :      0.82s CPU      1.29s WALL (       1 calls)
     electrons    :     13.27s CPU     19.43s WALL (       1 calls)

     Called by init_run:
     wfcinit      :      0.66s CPU      1.02s WALL (       1 calls)
     potinit      :      0.00s CPU      0.02s WALL (       1 calls)
     hinit0       :      0.15s CPU      0.20s WALL (       1 calls)

     Called by electrons:
     c_bands      :     12.02s CPU     17.22s WALL (       7 calls)
     sum_band     :      1.18s CPU      2.09s WALL (       7 calls)
     v_of_rho     :      0.01s CPU      0.01s WALL (       8 calls)
     newd         :      0.06s CPU      0.11s WALL (       8 calls)
     mix_rho      :      0.00s CPU      0.00s WALL (       7 calls)

     Called by c_bands:
     init_us_2    :      0.26s CPU      0.41s WALL (   11715 calls)
     cegterg      :     11.35s CPU     16.25s WALL (    5467 calls)

     Called by *egterg:
     cdiaghg      :      2.00s CPU      2.88s WALL (   20063 calls)
     h_psi        :      7.00s CPU     10.06s WALL (   20844 calls)
     s_psi        :      0.75s CPU      1.09s WALL (   20844 calls)
     g_psi        :      0.04s CPU      0.07s WALL (   14596 calls)

     Called by h_psi:
     h_psi:calbec :      0.76s CPU      1.08s WALL (   20844 calls)
     vloc_psi     :      5.39s CPU      7.75s WALL (   20844 calls)
     add_vuspsi   :      0.76s CPU      1.09s WALL (   20844 calls)

     General routines
     calbec       :      0.94s CPU      1.42s WALL (   26311 calls)
     fft          :      0.01s CPU      0.01s WALL (     102 calls)
     ffts         :      0.00s CPU      0.00s WALL (      15 calls)
     fftw         :      4.96s CPU      7.32s WALL (  503630 calls)
     interpolate  :      0.00s CPU      0.00s WALL (       8 calls)


     PWSCF        :     14.23s CPU     21.02s WALL


   This run was terminated on:  23:17:43  25Jun2025            

=------------------------------------------------------------------------------=
   JOB DONE.
=------------------------------------------------------------------------------=
